NAME 
ROWS
 N  OBJ
 L  R0      
 L  R1      
 L  R2      
 E  R3      
 E  R4      
 E  R5      
 E  R6      
 E  R7      
 E  R8      
 E  R9      
 E  R10     
 E  R11     
 E  R12     
COLUMNS
    MARKER    'MARKER'                 'INTORG'
    I0(8)     OBJ       -117
    I0(8)     R0        157
    I0(8)     R1        -52
    I0(8)     R2        18
    I0(8)     R3        -1
    I0(8)     R4        13
    I0(8)     R5        15
    I0(8)     R6        8
    I0(8)     R12       1
    I1(9)     OBJ       -15
    I1(9)     R0        -170
    I1(9)     R1        41
    I1(9)     R2        -53
    I1(9)     R3        13
    I1(9)     R4        11
    I1(9)     R5        17
    I1(9)     R6        1
    I1(9)     R7        7
    I1(9)     R12       1
    I2(8)     OBJ       31
    I2(8)     R0        -83
    I2(8)     R1        5
    I2(8)     R2        1
    I2(8)     R3        4
    I2(8)     R4        10
    I2(8)     R5        13
    I2(8)     R6        13
    I2(8)     R12       1
    I3(9)     OBJ       -200
    I3(9)     R0        -77
    I3(9)     R1        -12
    I3(9)     R2        -77
    I3(9)     R3        7
    I3(9)     R4        18
    I3(9)     R5        14
    I3(9)     R6        1
    I3(9)     R7        15
    I3(9)     R12       1
    I4(8)     OBJ       -22
    I4(8)     R0        95
    I4(8)     R1        -5
    I4(8)     R2        -160
    I4(8)     R3        8
    I4(8)     R4        10
    I4(8)     R5        -1
    I4(8)     R7        6
    I4(8)     R12       1
    MARKER    'MARKER'                 'INTEND'
    C5(8)     OBJ       3
    C5(8)     R0        -6
    C5(8)     R1        1
    C5(8)     R2        9
    C5(8)     R4        13
    C5(8)     R5        4
    C5(8)     R6        15
    C5(8)     R8        12
    C5(8)     R9        14
    C6(10)    OBJ       -2
    C6(10)    R0        4
    C6(10)    R1        -5
    C6(10)    R2        -2
    C6(10)    R3        6
    C6(10)    R4        16
    C6(10)    R5        10
    C6(10)    R6        -1
    C6(10)    R7        11
    C6(10)    R10       17
    C6(10)    R11       18
    C7(10)    OBJ       -9
    C7(10)    R0        -6
    C7(10)    R1        -1
    C7(10)    R2        -5
    C7(10)    R4        18
    C7(10)    R5        13
    C7(10)    R7        19
    C7(10)    R8        12
    C7(10)    R9        1
    C7(10)    R10       13
    C7(10)    R11       5
    C8(11)    OBJ       9
    C8(11)    R0        -5
    C8(11)    R1        -10
    C8(11)    R2        3
    C8(11)    R3        4
    C8(11)    R4        13
    C8(11)    R5        2
    C8(11)    R6        1
    C8(11)    R8        8
    C8(11)    R9        12
    C8(11)    R10       5
    C8(11)    R11       -1
    C9(9)     OBJ       8
    C9(9)     R0        -3
    C9(9)     R1        -1
    C9(9)     R2        -8
    C9(9)     R3        13
    C9(9)     R4        12
    C9(9)     R6        3
    C9(9)     R7        9
    C9(9)     R9        6
    C9(9)     R10       19
    C10(1)    R3        1
    C11(1)    R4        1
    C12(1)    R5        1
    C13(1)    R6        1
    C14(1)    R7        1
    C15(1)    R8        1
    C16(1)    R9        1
    C17(1)    R10       1
    C18(1)    R11       1
    C19(1)    R12       1
RHS
    RHS1      R0        -9.9333333333333343e+01
    RHS1      R1        -1.5722222222222221e+01
    RHS1      R2        -9.5611111111111114e+01
    RHS1      R3        63
    RHS1      R4        85
    RHS1      R5        83
    RHS1      R6        85
    RHS1      R7        93
    RHS1      R8        93
    RHS1      R9        64
    RHS1      R10       88
    RHS1      R11       74
    RHS1      R12       1
BOUNDS
 UP BND1      I0(8)     1
 UP BND1      I1(9)     1
 UP BND1      I2(8)     1
 UP BND1      I3(9)     1
 UP BND1      I4(8)     1
ENDATA
